width = 25;

n_circuits = 19;

circuit_x = array1d(1..19, [3, 3, 3, 3, 3, 3, 3, 3, 3, 3, 3, 3, 3, 3, 3, 4, 4, 4,
    6]);

circuit_y = array1d(1..19, [3, 4, 5, 6, 7, 8, 9, 10, 11, 13, 14, 17, 18, 19, 25,
    5, 7, 13, 3]);

opt_height = 25;

max_y = 25;

